NAME: tsp10_8
COMMENT: 10-tsp problem (Padberg/Rinaldi)
TYPE: TSP
DIMENSION: 10
EDGE_WEIGHT_TYPE : EUC_2D
NODE_COORD_SECTION
1 28 18
2 31 37
3 0 14
4 7 4
5 35 3
6 36 22
7 0 36
8 15 21
9 17 13
10 38 22
